(declare-fun main@%_619_0 () (_ BitVec 32))
(declare-fun main@%_620_0 () Bool)
(declare-fun main@%_622_0 () Bool)
(declare-fun main@%_621_0 () Bool)
(declare-fun main@%_618_0 () (_ BitVec 32))
(declare-fun main@%_624_0 () Bool)
(declare-fun main@%_583_0 () (_ BitVec 32))
(declare-fun main@%_584_0 () Bool)
(declare-fun main@%_586_0 () Bool)
(declare-fun main@%_585_0 () Bool)
(declare-fun main@%_582_0 () (_ BitVec 32))
(declare-fun main@%_590_0 () Bool)
(declare-fun main@%_547_0 () (_ BitVec 32))
(declare-fun main@%_548_0 () Bool)
(declare-fun main@%_550_0 () Bool)
(declare-fun main@%_549_0 () Bool)
(declare-fun main@%_546_0 () (_ BitVec 32))
(declare-fun main@%_554_0 () Bool)
(declare-fun main@%_511_0 () (_ BitVec 32))
(declare-fun main@%_512_0 () Bool)
(declare-fun main@%_514_0 () Bool)
(declare-fun main@%_513_0 () Bool)
(declare-fun main@%_510_0 () (_ BitVec 32))
(declare-fun main@%_518_0 () Bool)
(declare-fun main@%_475_0 () (_ BitVec 32))
(declare-fun main@%_476_0 () Bool)
(declare-fun main@%_478_0 () Bool)
(declare-fun main@%_477_0 () Bool)
(declare-fun main@%_474_0 () (_ BitVec 32))
(declare-fun main@%_482_0 () Bool)
(declare-fun main@%_439_0 () (_ BitVec 32))
(declare-fun main@%_440_0 () Bool)
(declare-fun main@%_442_0 () Bool)
(declare-fun main@%_441_0 () Bool)
(declare-fun main@%_438_0 () (_ BitVec 32))
(declare-fun main@%_446_0 () Bool)
(declare-fun main@%_403_0 () (_ BitVec 32))
(declare-fun main@%_404_0 () Bool)
(declare-fun main@%_406_0 () Bool)
(declare-fun main@%_405_0 () Bool)
(declare-fun main@%_402_0 () (_ BitVec 32))
(declare-fun main@%_410_0 () Bool)
(declare-fun main@%_367_0 () (_ BitVec 32))
(declare-fun main@%_368_0 () Bool)
(declare-fun main@%_370_0 () Bool)
(declare-fun main@%_369_0 () Bool)
(declare-fun main@%_366_0 () (_ BitVec 32))
(declare-fun main@%_374_0 () Bool)
(declare-fun main@%_331_0 () (_ BitVec 32))
(declare-fun main@%_332_0 () Bool)
(declare-fun main@%_334_0 () Bool)
(declare-fun main@%_333_0 () Bool)
(declare-fun main@%_330_0 () (_ BitVec 32))
(declare-fun main@%_338_0 () Bool)
(declare-fun main@%_295_0 () (_ BitVec 32))
(declare-fun main@%_296_0 () Bool)
(declare-fun main@%_117_0 () Bool)
(declare-fun main@%_79_0 () (_ BitVec 32))
(declare-fun main@%_80_0 () Bool)
(declare-fun main@%_82_0 () Bool)
(declare-fun main@%_81_0 () Bool)
(declare-fun main@%_78_0 () (_ BitVec 32))
(declare-fun main@%_189_0 () Bool)
(declare-fun main@%_86_0 () Bool)
(declare-fun main@%_188_0 () Bool)
(declare-fun main@%_43_0 () (_ BitVec 32))
(declare-fun main@%_44_0 () Bool)
(declare-fun main@%_46_0 () Bool)
(declare-fun main@%_45_0 () Bool)
(declare-fun main@%_42_0 () (_ BitVec 32))
(declare-fun main@%_187_0 () (_ BitVec 32))
(declare-fun main@%_50_0 () Bool)
(declare-fun main@%_190_0 () Bool)
(declare-fun main@%_118_0 () Bool)
(declare-fun sea.sp0_0 () (_ BitVec 64))
(declare-fun main@%_122_0 () Bool)
(declare-fun main@%_226_0 () Bool)
(declare-fun main@%_4_0 () Bool)
(declare-fun main@%_0_0 () (_ BitVec 32))
(declare-fun main@%_151_0 () (_ BitVec 32))
(declare-fun main@%_2_0 () Bool)
(declare-fun main@%_11_0 () (_ BitVec 32))
(declare-fun main@%_153_0 () Bool)
(declare-fun main@%_114_0 () (_ BitVec 32))
(declare-fun main@%_223_0 () (_ BitVec 32))
(declare-fun main@%_1_0 () (_ BitVec 32))
(declare-fun main@%_3_0 () Bool)
(declare-fun main@%_8_0 () Bool)
(declare-fun main@%_154_0 () Bool)
(declare-fun main@%_19_0 () Bool)
(declare-fun main@%_152_0 () Bool)
(declare-fun main@%_12_0 () (_ BitVec 32))
(declare-fun main@%_14_0 () Bool)
(declare-fun main@%_15_0 () Bool)
(declare-fun main@%_13_0 () Bool)
(declare-fun main@%_116_0 () Bool)
(declare-fun main@%_115_0 () (_ BitVec 32))
(declare-fun main@%_158_0 () Bool)
(declare-fun main@%_224_0 () Bool)
(declare-fun main@%_150_0 () (_ BitVec 32))
(declare-fun main@%_225_0 () Bool)
(declare-fun main@%_194_0 () Bool)
(declare-fun main@%_262_0 () Bool)
(declare-fun main@%_186_0 () (_ BitVec 32))
(declare-fun main@%_259_0 () (_ BitVec 32))
(declare-fun main@%_230_0 () Bool)
(declare-fun main@%_260_0 () Bool)
(declare-fun main@%_222_0 () (_ BitVec 32))
(declare-fun main@%_261_0 () Bool)
(declare-fun main@%_266_0 () Bool)
(declare-fun main@%_298_0 () Bool)
(declare-fun main@%_258_0 () (_ BitVec 32))
(declare-fun main@%_302_0 () Bool)
(declare-fun main@%_294_0 () (_ BitVec 32))
(declare-fun main@%_297_0 () Bool)

(assert (let ((a!1 (ite main@%_2_0
                (ite (or main@%_2_0 (and main@%_3_0 main@%_4_0))
                     main@%_1_0
                     #x00000000)
                #x00000000))
      (a!2 (ite main@%_8_0
                (ite (or main@%_8_0 (and main@%_3_0 main@%_4_0))
                     main@%_0_0
                     #x00000000)
                #x00000000))
      (a!3 (ite (or main@%_19_0 (and main@%_14_0 main@%_15_0))
                main@%_11_0
                (ite (or main@%_8_0 (and main@%_3_0 main@%_4_0))
                     main@%_0_0
                     #x00000000)))
      (a!4 ((_ extract 59 0)
             (bvlshr (bvmul ((_ zero_extend 32) main@%_1_0)
                            ((_ zero_extend 32) main@%_0_0))
                     #x0000000000000002)))
      (a!5 ((_ zero_extend 32)
             (ite (or main@%_8_0 (and main@%_3_0 main@%_4_0))
                  main@%_0_0
                  #x00000000)))
      (a!6 ((_ zero_extend 32)
             (ite (or main@%_2_0 (and main@%_3_0 main@%_4_0))
                  main@%_1_0
                  #x00000000)))
      (a!8 (ite (or main@%_13_0 (and main@%_14_0 main@%_15_0))
                main@%_12_0
                (ite (or main@%_2_0 (and main@%_3_0 main@%_4_0))
                     main@%_1_0
                     #x00000000)))
      (a!11 ((_ extract 59 0)
              (bvlshr (bvmul ((_ zero_extend 32) main@%_12_0)
                             ((_ zero_extend 32) main@%_11_0))
                      #x0000000000000002)))
      (a!16 ((_ extract 59 0)
              (bvlshr (bvmul ((_ zero_extend 32) main@%_43_0)
                             ((_ zero_extend 32) main@%_42_0))
                      #x0000000000000002)))
      (a!23 ((_ extract 59 0)
              (bvlshr (bvmul ((_ zero_extend 32) main@%_79_0)
                             ((_ zero_extend 32) main@%_78_0))
                      #x0000000000000002)))
      (a!28 ((_ extract 59 0)
              (bvlshr (bvmul ((_ zero_extend 32) main@%_115_0)
                             ((_ zero_extend 32) main@%_114_0))
                      #x0000000000000002)))
      (a!35 ((_ extract 59 0)
              (bvlshr (bvmul ((_ zero_extend 32) main@%_151_0)
                             ((_ zero_extend 32) main@%_150_0))
                      #x0000000000000002)))
      (a!40 ((_ extract 59 0)
              (bvlshr (bvmul ((_ zero_extend 32) main@%_187_0)
                             ((_ zero_extend 32) main@%_186_0))
                      #x0000000000000002)))
      (a!47 ((_ extract 59 0)
              (bvlshr (bvmul ((_ zero_extend 32) main@%_223_0)
                             ((_ zero_extend 32) main@%_222_0))
                      #x0000000000000002)))
      (a!52 ((_ extract 59 0)
              (bvlshr (bvmul ((_ zero_extend 32) main@%_259_0)
                             ((_ zero_extend 32) main@%_258_0))
                      #x0000000000000002)))
      (a!59 ((_ extract 59 0)
              (bvlshr (bvmul ((_ zero_extend 32) main@%_295_0)
                             ((_ zero_extend 32) main@%_294_0))
                      #x0000000000000002)))
      (a!64 ((_ extract 59 0)
              (bvlshr (bvmul ((_ zero_extend 32) main@%_331_0)
                             ((_ zero_extend 32) main@%_330_0))
                      #x0000000000000002)))
      (a!71 ((_ extract 59 0)
              (bvlshr (bvmul ((_ zero_extend 32) main@%_367_0)
                             ((_ zero_extend 32) main@%_366_0))
                      #x0000000000000002)))
      (a!76 ((_ extract 59 0)
              (bvlshr (bvmul ((_ zero_extend 32) main@%_403_0)
                             ((_ zero_extend 32) main@%_402_0))
                      #x0000000000000002)))
      (a!83 ((_ extract 59 0)
              (bvlshr (bvmul ((_ zero_extend 32) main@%_439_0)
                             ((_ zero_extend 32) main@%_438_0))
                      #x0000000000000002)))
      (a!88 ((_ extract 59 0)
              (bvlshr (bvmul ((_ zero_extend 32) main@%_475_0)
                             ((_ zero_extend 32) main@%_474_0))
                      #x0000000000000002)))
      (a!95 ((_ extract 59 0)
              (bvlshr (bvmul ((_ zero_extend 32) main@%_511_0)
                             ((_ zero_extend 32) main@%_510_0))
                      #x0000000000000002)))
      (a!100 ((_ extract 59 0)
               (bvlshr (bvmul ((_ zero_extend 32) main@%_547_0)
                              ((_ zero_extend 32) main@%_546_0))
                       #x0000000000000002)))
      (a!107 ((_ extract 59 0)
               (bvlshr (bvmul ((_ zero_extend 32) main@%_583_0)
                              ((_ zero_extend 32) main@%_582_0))
                       #x0000000000000002))))
(let ((a!7 ((_ zero_extend 4)
             ((_ extract 59 0) (bvlshr (bvmul a!5 a!6) #x0000000000000002))))
      (a!10 (ite main@%_50_0
                 (ite (or main@%_50_0 (and main@%_45_0 main@%_46_0))
                      main@%_42_0
                      a!3)
                 #x00000000))
      (a!12 ((_ extract 59 0)
              (bvlshr (bvmul ((_ zero_extend 32) a!3) ((_ zero_extend 32) a!8))
                      #x0000000000000002)))
      (a!13 (ite main@%_44_0
                 (ite (or main@%_44_0 (and main@%_45_0 main@%_46_0))
                      main@%_43_0
                      a!8)
                 #x00000000))
      (a!15 (ite (or main@%_86_0 (and main@%_81_0 main@%_82_0))
                 main@%_78_0
                 (ite (or main@%_50_0 (and main@%_45_0 main@%_46_0))
                      main@%_42_0
                      a!3)))
      (a!17 ((_ zero_extend 32)
              (ite (or main@%_50_0 (and main@%_45_0 main@%_46_0))
                   main@%_42_0
                   a!3)))
      (a!18 ((_ zero_extend 32)
              (ite (or main@%_44_0 (and main@%_45_0 main@%_46_0))
                   main@%_43_0
                   a!8)))
      (a!20 (ite (or main@%_80_0 (and main@%_81_0 main@%_82_0))
                 main@%_79_0
                 (ite (or main@%_44_0 (and main@%_45_0 main@%_46_0))
                      main@%_43_0
                      a!8))))
(let ((a!9 (and (= (ite main@%_19_0 main@%_11_0 #x00000000)
                   (ite main@%_19_0 a!3 #x00000000))
                (= (ite (ite main@%_4_0 main@%_3_0 false)
                        ((_ zero_extend 4) a!4)
                        #x0000000000000000)
                   (ite (ite main@%_4_0 main@%_3_0 false)
                        a!7
                        #x0000000000000000))
                (= (ite main@%_13_0 main@%_12_0 #x00000000)
                   (ite main@%_13_0 a!8 #x00000000))))
      (a!14 (and (= (ite main@%_50_0 main@%_42_0 #x00000000) a!10)
                 (= (ite (ite main@%_15_0 main@%_14_0 false)
                         ((_ zero_extend 4) a!11)
                         #x0000000000000000)
                    (ite (ite main@%_15_0 main@%_14_0 false)
                         ((_ zero_extend 4) a!12)
                         #x0000000000000000))
                 (= (ite main@%_44_0 main@%_43_0 #x00000000) a!13)))
      (a!19 ((_ zero_extend 4)
              ((_ extract 59 0) (bvlshr (bvmul a!17 a!18) #x0000000000000002))))
      (a!22 (ite main@%_122_0
                 (ite (or main@%_122_0 (and main@%_117_0 main@%_118_0))
                      main@%_114_0
                      a!15)
                 #x00000000))
      (a!24 ((_ extract 59 0)
              (bvlshr (bvmul ((_ zero_extend 32) a!15)
                             ((_ zero_extend 32) a!20))
                      #x0000000000000002)))
      (a!25 (ite main@%_116_0
                 (ite (or main@%_116_0 (and main@%_117_0 main@%_118_0))
                      main@%_115_0
                      a!20)
                 #x00000000))
      (a!27 (ite (or main@%_158_0 (and main@%_153_0 main@%_154_0))
                 main@%_150_0
                 (ite (or main@%_122_0 (and main@%_117_0 main@%_118_0))
                      main@%_114_0
                      a!15)))
      (a!29 ((_ zero_extend 32)
              (ite (or main@%_122_0 (and main@%_117_0 main@%_118_0))
                   main@%_114_0
                   a!15)))
      (a!30 ((_ zero_extend 32)
              (ite (or main@%_116_0 (and main@%_117_0 main@%_118_0))
                   main@%_115_0
                   a!20)))
      (a!32 (ite (or main@%_152_0 (and main@%_153_0 main@%_154_0))
                 main@%_151_0
                 (ite (or main@%_116_0 (and main@%_117_0 main@%_118_0))
                      main@%_115_0
                      a!20))))
(let ((a!21 (and (= (ite main@%_86_0 main@%_78_0 #x00000000)
                    (ite main@%_86_0 a!15 #x00000000))
                 (= (ite (ite main@%_46_0 main@%_45_0 false)
                         ((_ zero_extend 4) a!16)
                         #x0000000000000000)
                    (ite (ite main@%_46_0 main@%_45_0 false)
                         a!19
                         #x0000000000000000))
                 (= (ite main@%_80_0 main@%_79_0 #x00000000)
                    (ite main@%_80_0 a!20 #x00000000))))
      (a!26 (and (= (ite main@%_122_0 main@%_114_0 #x00000000) a!22)
                 (= (ite (ite main@%_82_0 main@%_81_0 false)
                         ((_ zero_extend 4) a!23)
                         #x0000000000000000)
                    (ite (ite main@%_82_0 main@%_81_0 false)
                         ((_ zero_extend 4) a!24)
                         #x0000000000000000))
                 (= (ite main@%_116_0 main@%_115_0 #x00000000) a!25)))
      (a!31 ((_ zero_extend 4)
              ((_ extract 59 0) (bvlshr (bvmul a!29 a!30) #x0000000000000002))))
      (a!34 (ite main@%_194_0
                 (ite (or main@%_194_0 (and main@%_189_0 main@%_190_0))
                      main@%_186_0
                      a!27)
                 #x00000000))
      (a!36 ((_ extract 59 0)
              (bvlshr (bvmul ((_ zero_extend 32) a!27)
                             ((_ zero_extend 32) a!32))
                      #x0000000000000002)))
      (a!37 (ite main@%_188_0
                 (ite (or main@%_188_0 (and main@%_189_0 main@%_190_0))
                      main@%_187_0
                      a!32)
                 #x00000000))
      (a!39 (ite (or main@%_230_0 (and main@%_225_0 main@%_226_0))
                 main@%_222_0
                 (ite (or main@%_194_0 (and main@%_189_0 main@%_190_0))
                      main@%_186_0
                      a!27)))
      (a!41 ((_ zero_extend 32)
              (ite (or main@%_194_0 (and main@%_189_0 main@%_190_0))
                   main@%_186_0
                   a!27)))
      (a!42 ((_ zero_extend 32)
              (ite (or main@%_188_0 (and main@%_189_0 main@%_190_0))
                   main@%_187_0
                   a!32)))
      (a!44 (ite (or main@%_224_0 (and main@%_225_0 main@%_226_0))
                 main@%_223_0
                 (ite (or main@%_188_0 (and main@%_189_0 main@%_190_0))
                      main@%_187_0
                      a!32))))
(let ((a!33 (and (= (ite main@%_158_0 main@%_150_0 #x00000000)
                    (ite main@%_158_0 a!27 #x00000000))
                 (= (ite (ite main@%_118_0 main@%_117_0 false)
                         ((_ zero_extend 4) a!28)
                         #x0000000000000000)
                    (ite (ite main@%_118_0 main@%_117_0 false)
                         a!31
                         #x0000000000000000))
                 (= (ite main@%_152_0 main@%_151_0 #x00000000)
                    (ite main@%_152_0 a!32 #x00000000))))
      (a!38 (and (= (ite main@%_194_0 main@%_186_0 #x00000000) a!34)
                 (= (ite (ite main@%_154_0 main@%_153_0 false)
                         ((_ zero_extend 4) a!35)
                         #x0000000000000000)
                    (ite (ite main@%_154_0 main@%_153_0 false)
                         ((_ zero_extend 4) a!36)
                         #x0000000000000000))
                 (= (ite main@%_188_0 main@%_187_0 #x00000000) a!37)))
      (a!43 ((_ zero_extend 4)
              ((_ extract 59 0) (bvlshr (bvmul a!41 a!42) #x0000000000000002))))
      (a!46 (ite main@%_266_0
                 (ite (or main@%_266_0 (and main@%_261_0 main@%_262_0))
                      main@%_258_0
                      a!39)
                 #x00000000))
      (a!48 ((_ extract 59 0)
              (bvlshr (bvmul ((_ zero_extend 32) a!39)
                             ((_ zero_extend 32) a!44))
                      #x0000000000000002)))
      (a!49 (ite main@%_260_0
                 (ite (or main@%_260_0 (and main@%_261_0 main@%_262_0))
                      main@%_259_0
                      a!44)
                 #x00000000))
      (a!51 (ite (or main@%_302_0 (and main@%_297_0 main@%_298_0))
                 main@%_294_0
                 (ite (or main@%_266_0 (and main@%_261_0 main@%_262_0))
                      main@%_258_0
                      a!39)))
      (a!53 ((_ zero_extend 32)
              (ite (or main@%_266_0 (and main@%_261_0 main@%_262_0))
                   main@%_258_0
                   a!39)))
      (a!54 ((_ zero_extend 32)
              (ite (or main@%_260_0 (and main@%_261_0 main@%_262_0))
                   main@%_259_0
                   a!44)))
      (a!56 (ite (or main@%_296_0 (and main@%_297_0 main@%_298_0))
                 main@%_295_0
                 (ite (or main@%_260_0 (and main@%_261_0 main@%_262_0))
                      main@%_259_0
                      a!44))))
(let ((a!45 (and (= (ite main@%_230_0 main@%_222_0 #x00000000)
                    (ite main@%_230_0 a!39 #x00000000))
                 (= (ite (ite main@%_190_0 main@%_189_0 false)
                         ((_ zero_extend 4) a!40)
                         #x0000000000000000)
                    (ite (ite main@%_190_0 main@%_189_0 false)
                         a!43
                         #x0000000000000000))
                 (= (ite main@%_224_0 main@%_223_0 #x00000000)
                    (ite main@%_224_0 a!44 #x00000000))))
      (a!50 (and (= (ite main@%_266_0 main@%_258_0 #x00000000) a!46)
                 (= (ite (ite main@%_226_0 main@%_225_0 false)
                         ((_ zero_extend 4) a!47)
                         #x0000000000000000)
                    (ite (ite main@%_226_0 main@%_225_0 false)
                         ((_ zero_extend 4) a!48)
                         #x0000000000000000))
                 (= (ite main@%_260_0 main@%_259_0 #x00000000) a!49)))
      (a!55 ((_ zero_extend 4)
              ((_ extract 59 0) (bvlshr (bvmul a!53 a!54) #x0000000000000002))))
      (a!58 (ite main@%_338_0
                 (ite (or main@%_338_0 (and main@%_333_0 main@%_334_0))
                      main@%_330_0
                      a!51)
                 #x00000000))
      (a!60 ((_ extract 59 0)
              (bvlshr (bvmul ((_ zero_extend 32) a!51)
                             ((_ zero_extend 32) a!56))
                      #x0000000000000002)))
      (a!61 (ite main@%_332_0
                 (ite (or main@%_332_0 (and main@%_333_0 main@%_334_0))
                      main@%_331_0
                      a!56)
                 #x00000000))
      (a!63 (ite (or main@%_374_0 (and main@%_369_0 main@%_370_0))
                 main@%_366_0
                 (ite (or main@%_338_0 (and main@%_333_0 main@%_334_0))
                      main@%_330_0
                      a!51)))
      (a!65 ((_ zero_extend 32)
              (ite (or main@%_338_0 (and main@%_333_0 main@%_334_0))
                   main@%_330_0
                   a!51)))
      (a!66 ((_ zero_extend 32)
              (ite (or main@%_332_0 (and main@%_333_0 main@%_334_0))
                   main@%_331_0
                   a!56)))
      (a!68 (ite (or main@%_368_0 (and main@%_369_0 main@%_370_0))
                 main@%_367_0
                 (ite (or main@%_332_0 (and main@%_333_0 main@%_334_0))
                      main@%_331_0
                      a!56))))
(let ((a!57 (and (= (ite main@%_302_0 main@%_294_0 #x00000000)
                    (ite main@%_302_0 a!51 #x00000000))
                 (= (ite (ite main@%_262_0 main@%_261_0 false)
                         ((_ zero_extend 4) a!52)
                         #x0000000000000000)
                    (ite (ite main@%_262_0 main@%_261_0 false)
                         a!55
                         #x0000000000000000))
                 (= (ite main@%_296_0 main@%_295_0 #x00000000)
                    (ite main@%_296_0 a!56 #x00000000))))
      (a!62 (and (= (ite main@%_338_0 main@%_330_0 #x00000000) a!58)
                 (= (ite (ite main@%_298_0 main@%_297_0 false)
                         ((_ zero_extend 4) a!59)
                         #x0000000000000000)
                    (ite (ite main@%_298_0 main@%_297_0 false)
                         ((_ zero_extend 4) a!60)
                         #x0000000000000000))
                 (= (ite main@%_332_0 main@%_331_0 #x00000000) a!61)))
      (a!67 ((_ zero_extend 4)
              ((_ extract 59 0) (bvlshr (bvmul a!65 a!66) #x0000000000000002))))
      (a!70 (ite main@%_410_0
                 (ite (or main@%_410_0 (and main@%_405_0 main@%_406_0))
                      main@%_402_0
                      a!63)
                 #x00000000))
      (a!72 ((_ extract 59 0)
              (bvlshr (bvmul ((_ zero_extend 32) a!63)
                             ((_ zero_extend 32) a!68))
                      #x0000000000000002)))
      (a!73 (ite main@%_404_0
                 (ite (or main@%_404_0 (and main@%_405_0 main@%_406_0))
                      main@%_403_0
                      a!68)
                 #x00000000))
      (a!75 (ite (or main@%_446_0 (and main@%_441_0 main@%_442_0))
                 main@%_438_0
                 (ite (or main@%_410_0 (and main@%_405_0 main@%_406_0))
                      main@%_402_0
                      a!63)))
      (a!77 ((_ zero_extend 32)
              (ite (or main@%_410_0 (and main@%_405_0 main@%_406_0))
                   main@%_402_0
                   a!63)))
      (a!78 ((_ zero_extend 32)
              (ite (or main@%_404_0 (and main@%_405_0 main@%_406_0))
                   main@%_403_0
                   a!68)))
      (a!80 (ite (or main@%_440_0 (and main@%_441_0 main@%_442_0))
                 main@%_439_0
                 (ite (or main@%_404_0 (and main@%_405_0 main@%_406_0))
                      main@%_403_0
                      a!68))))
(let ((a!69 (and (= (ite main@%_374_0 main@%_366_0 #x00000000)
                    (ite main@%_374_0 a!63 #x00000000))
                 (= (ite (ite main@%_334_0 main@%_333_0 false)
                         ((_ zero_extend 4) a!64)
                         #x0000000000000000)
                    (ite (ite main@%_334_0 main@%_333_0 false)
                         a!67
                         #x0000000000000000))
                 (= (ite main@%_368_0 main@%_367_0 #x00000000)
                    (ite main@%_368_0 a!68 #x00000000))))
      (a!74 (and (= (ite main@%_410_0 main@%_402_0 #x00000000) a!70)
                 (= (ite (ite main@%_370_0 main@%_369_0 false)
                         ((_ zero_extend 4) a!71)
                         #x0000000000000000)
                    (ite (ite main@%_370_0 main@%_369_0 false)
                         ((_ zero_extend 4) a!72)
                         #x0000000000000000))
                 (= (ite main@%_404_0 main@%_403_0 #x00000000) a!73)))
      (a!79 ((_ zero_extend 4)
              ((_ extract 59 0) (bvlshr (bvmul a!77 a!78) #x0000000000000002))))
      (a!82 (ite main@%_482_0
                 (ite (or main@%_482_0 (and main@%_477_0 main@%_478_0))
                      main@%_474_0
                      a!75)
                 #x00000000))
      (a!84 ((_ extract 59 0)
              (bvlshr (bvmul ((_ zero_extend 32) a!75)
                             ((_ zero_extend 32) a!80))
                      #x0000000000000002)))
      (a!85 (ite main@%_476_0
                 (ite (or main@%_476_0 (and main@%_477_0 main@%_478_0))
                      main@%_475_0
                      a!80)
                 #x00000000))
      (a!87 (ite (or main@%_518_0 (and main@%_513_0 main@%_514_0))
                 main@%_510_0
                 (ite (or main@%_482_0 (and main@%_477_0 main@%_478_0))
                      main@%_474_0
                      a!75)))
      (a!89 ((_ zero_extend 32)
              (ite (or main@%_482_0 (and main@%_477_0 main@%_478_0))
                   main@%_474_0
                   a!75)))
      (a!90 ((_ zero_extend 32)
              (ite (or main@%_476_0 (and main@%_477_0 main@%_478_0))
                   main@%_475_0
                   a!80)))
      (a!92 (ite (or main@%_512_0 (and main@%_513_0 main@%_514_0))
                 main@%_511_0
                 (ite (or main@%_476_0 (and main@%_477_0 main@%_478_0))
                      main@%_475_0
                      a!80))))
(let ((a!81 (and (= (ite main@%_446_0 main@%_438_0 #x00000000)
                    (ite main@%_446_0 a!75 #x00000000))
                 (= (ite (ite main@%_406_0 main@%_405_0 false)
                         ((_ zero_extend 4) a!76)
                         #x0000000000000000)
                    (ite (ite main@%_406_0 main@%_405_0 false)
                         a!79
                         #x0000000000000000))
                 (= (ite main@%_440_0 main@%_439_0 #x00000000)
                    (ite main@%_440_0 a!80 #x00000000))))
      (a!86 (and (= (ite main@%_482_0 main@%_474_0 #x00000000) a!82)
                 (= (ite (ite main@%_442_0 main@%_441_0 false)
                         ((_ zero_extend 4) a!83)
                         #x0000000000000000)
                    (ite (ite main@%_442_0 main@%_441_0 false)
                         ((_ zero_extend 4) a!84)
                         #x0000000000000000))
                 (= (ite main@%_476_0 main@%_475_0 #x00000000) a!85)))
      (a!91 ((_ zero_extend 4)
              ((_ extract 59 0) (bvlshr (bvmul a!89 a!90) #x0000000000000002))))
      (a!94 (ite main@%_554_0
                 (ite (or main@%_554_0 (and main@%_549_0 main@%_550_0))
                      main@%_546_0
                      a!87)
                 #x00000000))
      (a!96 ((_ extract 59 0)
              (bvlshr (bvmul ((_ zero_extend 32) a!87)
                             ((_ zero_extend 32) a!92))
                      #x0000000000000002)))
      (a!97 (ite main@%_548_0
                 (ite (or main@%_548_0 (and main@%_549_0 main@%_550_0))
                      main@%_547_0
                      a!92)
                 #x00000000))
      (a!99 (ite (or main@%_590_0 (and main@%_585_0 main@%_586_0))
                 main@%_582_0
                 (ite (or main@%_554_0 (and main@%_549_0 main@%_550_0))
                      main@%_546_0
                      a!87)))
      (a!101 ((_ zero_extend 32)
               (ite (or main@%_554_0 (and main@%_549_0 main@%_550_0))
                    main@%_546_0
                    a!87)))
      (a!102 ((_ zero_extend 32)
               (ite (or main@%_548_0 (and main@%_549_0 main@%_550_0))
                    main@%_547_0
                    a!92)))
      (a!104 (ite (or main@%_584_0 (and main@%_585_0 main@%_586_0))
                  main@%_583_0
                  (ite (or main@%_548_0 (and main@%_549_0 main@%_550_0))
                       main@%_547_0
                       a!92))))
(let ((a!93 (and (= (ite main@%_518_0 main@%_510_0 #x00000000)
                    (ite main@%_518_0 a!87 #x00000000))
                 (= (ite (ite main@%_478_0 main@%_477_0 false)
                         ((_ zero_extend 4) a!88)
                         #x0000000000000000)
                    (ite (ite main@%_478_0 main@%_477_0 false)
                         a!91
                         #x0000000000000000))
                 (= (ite main@%_512_0 main@%_511_0 #x00000000)
                    (ite main@%_512_0 a!92 #x00000000))))
      (a!98 (and (= (ite main@%_554_0 main@%_546_0 #x00000000) a!94)
                 (= (ite (ite main@%_514_0 main@%_513_0 false)
                         ((_ zero_extend 4) a!95)
                         #x0000000000000000)
                    (ite (ite main@%_514_0 main@%_513_0 false)
                         ((_ zero_extend 4) a!96)
                         #x0000000000000000))
                 (= (ite main@%_548_0 main@%_547_0 #x00000000) a!97)))
      (a!103 ((_ zero_extend 4)
               ((_ extract 59 0)
                 (bvlshr (bvmul a!101 a!102) #x0000000000000002))))
      (a!106 (ite main@%_624_0
                  (ite (or main@%_624_0 (and main@%_621_0 main@%_622_0))
                       main@%_618_0
                       a!99)
                  #x00000000))
      (a!108 ((_ extract 59 0)
               (bvlshr (bvmul ((_ zero_extend 32) a!99)
                              ((_ zero_extend 32) a!104))
                       #x0000000000000002)))
      (a!109 (ite main@%_620_0
                  (ite (or main@%_620_0 (and main@%_621_0 main@%_622_0))
                       main@%_619_0
                       a!104)
                  #x00000000)))
(let ((a!105 (and (= (ite main@%_590_0 main@%_582_0 #x00000000)
                     (ite main@%_590_0 a!99 #x00000000))
                  (= (ite (ite main@%_550_0 main@%_549_0 false)
                          ((_ zero_extend 4) a!100)
                          #x0000000000000000)
                     (ite (ite main@%_550_0 main@%_549_0 false)
                          a!103
                          #x0000000000000000))
                  (= (ite main@%_584_0 main@%_583_0 #x00000000)
                     (ite main@%_584_0 a!104 #x00000000))))
      (a!110 (and (= (ite main@%_624_0 main@%_618_0 #x00000000) a!106)
                  (= (ite (ite main@%_586_0 main@%_585_0 false)
                          ((_ zero_extend 4) a!107)
                          #x0000000000000000)
                     (ite (ite main@%_586_0 main@%_585_0 false)
                          ((_ zero_extend 4) a!108)
                          #x0000000000000000))
                  (= (ite main@%_620_0 main@%_619_0 #x00000000) a!109))))
(let ((a!111 (ite a!98 (ite a!105 (and true (xor a!110 true)) true) true)))
(let ((a!112 (ite a!74
                  (ite a!81 (ite a!86 (ite a!93 a!111 true) true) true)
                  true)))
(let ((a!113 (ite a!50
                  (ite a!57 (ite a!62 (ite a!69 a!112 true) true) true)
                  true)))
(let ((a!114 (ite a!26
                  (ite a!33 (ite a!38 (ite a!45 a!113 true) true) true)
                  true)))
(let ((a!115 (ite (and (= (ite main@%_2_0 main@%_1_0 #x00000000) a!1)
                       (= (ite main@%_8_0 main@%_0_0 #x00000000) a!2))
                  (ite a!9 (ite a!14 (ite a!21 a!114 true) true) true)
                  true)))
  (and (= #b000 ((_ extract 2 0) sea.sp0_0))
       (bvule sea.sp0_0 #x00000000c0000000)
       (bvuge sea.sp0_0 #x00000000bf700000)
       a!115))))))))))))))))))
(check-sat)
